(set-info :smt-lib-version 2.6)
(set-logic QF_NIA)
(set-info :source |AProve team, see http://aprove.informatik.rwth-aachen.de/, submitted for SMT-COMP 2014|)
(set-info :category "industrial")
(set-info :status sat)
(declare-fun a__4 () Int)
(declare-fun a__2 () Int)
(declare-fun a__7 () Int)
(declare-fun a__10 () Int)
(declare-fun a__12 () Int)
(declare-fun a__15 () Int)
(declare-fun a__18 () Int)
(declare-fun a__20 () Int)
(declare-fun a__23 () Int)
(declare-fun a__26 () Int)
(declare-fun a__28 () Int)
(declare-fun a__32 () Int)
(declare-fun a__36 () Int)
(declare-fun a__40 () Int)
(declare-fun a__44 () Int)
(declare-fun a__47 () Int)
(declare-fun a__49 () Int)
(declare-fun a__52 () Int)
(declare-fun a__54 () Int)
(declare-fun a__56 () Int)
(declare-fun a__58 () Int)
(declare-fun a__62 () Int)
(declare-fun a__66 () Int)
(declare-fun a__70 () Int)
(declare-fun a__74 () Int)
(declare-fun a__77 () Int)
(declare-fun a__79 () Int)
(declare-fun a__83 () Int)
(declare-fun a__87 () Int)
(declare-fun a__91 () Int)
(declare-fun a__94 () Int)
(declare-fun a__96 () Int)
(declare-fun a__3 () Int)
(declare-fun a__6 () Int)
(declare-fun a__9 () Int)
(declare-fun a__11 () Int)
(declare-fun a__14 () Int)
(declare-fun a__17 () Int)
(declare-fun a__19 () Int)
(declare-fun a__22 () Int)
(declare-fun a__25 () Int)
(declare-fun a__27 () Int)
(declare-fun a__31 () Int)
(declare-fun a__35 () Int)
(declare-fun a__39 () Int)
(declare-fun a__43 () Int)
(declare-fun a__46 () Int)
(declare-fun a__48 () Int)
(declare-fun a__51 () Int)
(declare-fun a__53 () Int)
(declare-fun a__55 () Int)
(declare-fun a__57 () Int)
(declare-fun a__61 () Int)
(declare-fun a__65 () Int)
(declare-fun a__69 () Int)
(declare-fun a__73 () Int)
(declare-fun a__76 () Int)
(declare-fun a__78 () Int)
(declare-fun a__82 () Int)
(declare-fun a__86 () Int)
(declare-fun a__90 () Int)
(declare-fun a__93 () Int)
(declare-fun a__95 () Int)
(assert (and (>= (+ (* a__4 a__2) (* (- 0 1) a__2)) 0) (>= (+ (* a__7 a__2) (* (- 0 1) a__2)) 0) (>= (+ (* a__10 a__2) (* (- 0 1) a__2)) 0) (>= (+ (* a__12 a__2) (* (- 0 1) a__2)) 0) (>= (+ (* a__15 a__2) (* (- 0 1) a__2)) 0) (>= (+ (* a__18 a__2) (* (- 0 1) a__2)) 0) (>= (+ (* a__20 a__2) (* (- 0 1) a__2)) 0) (>= (+ (* a__23 a__2) (* (- 0 1) a__2)) 0) (>= (+ (* a__26 a__2) (* (- 0 1) a__2)) 0) (>= (+ (* a__28 a__2) (* (- 0 1) a__2)) 0) (>= (+ (* a__32 a__2) (* (- 0 1) a__2)) 0) (>= (+ (* a__36 a__2) (* (- 0 1) a__2)) 0) (>= (+ (* a__40 a__2) (* (- 0 1) a__2)) 0) (>= (+ (* a__44 a__2) (* (- 0 1) a__2)) 0) (>= (+ (* a__47 a__2) (* (- 0 1) a__2)) 0) (>= (+ (* a__49 a__2) (* (- 0 1) a__2)) 0) (>= (+ (* a__52 a__2) (* (- 0 1) a__2)) 0) (>= (+ (* a__54 a__2) (* (- 0 1) a__2)) 0) (>= (+ (* a__56 a__2) (* (- 0 1) a__2)) 0) (>= (+ (* a__58 a__2) (* (- 0 1) a__2)) 0) (>= (+ (* a__62 a__2) (* (- 0 1) a__2)) 0) (>= (+ (* a__66 a__2) (* (- 0 1) a__2)) 0) (>= (+ (* a__70 a__2) (* (- 0 1) a__2)) 0) (>= (+ (* a__74 a__2) (* (- 0 1) a__2)) 0) (>= (+ (* a__77 a__2) (* (- 0 1) a__2)) 0) (>= (+ (* a__79 a__2) (* (- 0 1) a__2)) 0) (>= (+ (* a__83 a__2) (* (- 0 1) a__2)) 0) (>= (+ (* a__87 a__2) (* (- 0 1) a__2)) 0) (>= (+ (* a__91 a__2) (* (- 0 1) a__2)) 0) (>= (+ (* a__94 a__2) (* (- 0 1) a__2)) 0) (>= (+ (* a__96 a__2) (* (- 0 1) a__2)) 0) (>= (* a__3 a__2) 0) (>= (* a__6 a__2) 0) (>= (* a__9 a__2) 0) (>= (* a__11 a__2) 0) (>= (* a__14 a__2) 0) (>= (* a__17 a__2) 0) (>= (* a__19 a__2) 0) (>= (* a__22 a__2) 0) (>= (* a__25 a__2) 0) (>= (* a__27 a__2) 0) (>= (* a__31 a__2) 0) (>= (* a__35 a__2) 0) (>= (* a__39 a__2) 0) (>= (* a__43 a__2) 0) (>= (* a__46 a__2) 0) (>= (* a__48 a__2) 0) (>= (* a__51 a__2) 0) (>= (* a__53 a__2) 0) (>= (* a__55 a__2) 0) (>= (* a__57 a__2) 0) (>= (* a__61 a__2) 0) (>= (* a__65 a__2) 0) (>= (* a__69 a__2) 0) (>= (* a__73 a__2) 0) (>= (* a__76 a__2) 0) (>= (* a__78 a__2) 0) (>= (* a__82 a__2) 0) (>= (* a__86 a__2) 0) (>= (* a__90 a__2) 0) (>= (* a__93 a__2) 0) (>= (* a__95 a__2) 0) (not (and (= (* a__3 a__2) 0) (= (* a__6 a__2) 0) (= (* a__9 a__2) 0) (= (* a__11 a__2) 0) (= (* a__14 a__2) 0) (= (* a__17 a__2) 0) (= (* a__19 a__2) 0) (= (* a__22 a__2) 0) (= (* a__25 a__2) 0) (= (* a__27 a__2) 0) (= (* a__31 a__2) 0) (= (* a__35 a__2) 0) (= (* a__39 a__2) 0) (= (* a__43 a__2) 0) (= (* a__46 a__2) 0) (= (* a__48 a__2) 0) (= (* a__51 a__2) 0) (= (* a__53 a__2) 0) (= (* a__55 a__2) 0) (= (* a__57 a__2) 0) (= (* a__61 a__2) 0) (= (* a__65 a__2) 0) (= (* a__69 a__2) 0) (= (* a__73 a__2) 0) (= (* a__76 a__2) 0) (= (* a__78 a__2) 0) (= (* a__82 a__2) 0) (= (* a__86 a__2) 0) (= (* a__90 a__2) 0) (= (* a__93 a__2) 0) (= (* a__95 a__2) 0))) (>= a__4 0) (>= a__2 0) (>= a__7 0) (>= a__10 0) (>= a__12 0) (>= a__15 0) (>= a__18 0) (>= a__20 0) (>= a__23 0) (>= a__26 0) (>= a__28 0) (>= a__32 0) (>= a__36 0) (>= a__40 0) (>= a__44 0) (>= a__47 0) (>= a__49 0) (>= a__52 0) (>= a__54 0) (>= a__56 0) (>= a__58 0) (>= a__62 0) (>= a__66 0) (>= a__70 0) (>= a__74 0) (>= a__77 0) (>= a__79 0) (>= a__83 0) (>= a__87 0) (>= a__91 0) (>= a__94 0) (>= a__96 0) (>= a__3 0) (>= a__6 0) (>= a__9 0) (>= a__11 0) (>= a__14 0) (>= a__17 0) (>= a__19 0) (>= a__22 0) (>= a__25 0) (>= a__27 0) (>= a__31 0) (>= a__35 0) (>= a__39 0) (>= a__43 0) (>= a__46 0) (>= a__48 0) (>= a__51 0) (>= a__53 0) (>= a__55 0) (>= a__57 0) (>= a__61 0) (>= a__65 0) (>= a__69 0) (>= a__73 0) (>= a__76 0) (>= a__78 0) (>= a__82 0) (>= a__86 0) (>= a__90 0) (>= a__93 0) (>= a__95 0)))
(check-sat)
;;(get-assignment)
;;(get-model)
(exit)
